(set-logic QF_S)
(declare-fun var0 () String)
(declare-fun var1 () String)
(declare-fun var2 () String)
(declare-fun var3 () String)
(assert (= (str.++ "V$b" (str.++ var0 (str.++ var1 (str.++ var2 var3)))) (str.++ (str.++ var0 (str.++ var1 (str.++ var2 var3))) "@:D")))
(check-sat)